instances/knapsack/knapsack_general/knapsack_40_1_3.kp
42
40
6188

741 74.0 841 111.09
966 97.0 1066 207.39
934 93.0 1034 126.41
418 42.0 518 92.07
504 50.0 604 111.54
808 81.0 908 122.23
397 40.0 497 60.76
808 81.0 908 124.99
562 56.0 662 122.43
145 14.0 245 37.66
611 61.0 711 126.35
381 38.0 481 76.29
595 60.0 695 109.21
761 76.0 861 138.45
853 85.0 953 106.72
247 25.0 347 58.41
771 77.0 871 93.39
798 80.0 898 131.9
76 8.0 176 29.62
934 93.0 1034 184.05
409 41.0 509 75.38
415 42.0 515 63.16
805 80.0 905 169.06
943 94.0 1043 117.54
634 63.0 734 123.87
499 50.0 599 66.47
990 99.0 1090 212.15
430 43.0 530 53.6
682 68.0 782 122.43
359 36.0 459 68.91
878 88.0 978 187.98
232 23.0 332 51.44
619 62.0 719 74.84
566 57.0 666 123.82
810 81.0 910 155.9
462 46.0 562 109.86
823 82.0 923 163.32
930 93.0 1030 108.93
280 28.0 380 41.95
677 68.0 777 89.99

42
[5071]

[[78, 64, 37, 82, 34, 66, 47, 46, 93, 82, 117, 28, 51, 112, 26, 27, 35, 57, 42, 1, 50, 87, 105, 40, 91, 64, 46, 23, 68, 4, 75, 98, 28, 79, 52, 78, 30, 38, 32, 11]]

[[803, 669, 7, 494, 485, 151, 526, 211, 495, 977, 765, 704, 656, 889, 47, 499, 168, 638, 141, 514, 167, 910, 134, 586, 559, 234, 783, 921, 88, 334, 32, 963, 936, 437, 531, 193, 828, 578, 529, 705]]
