instances/knapsack/knapsack_general/knapsack_40_1_3.lp
\ Model knapsack_40_1_3
\ LP format - for model browsing. Use MPS format to capture full model detail.
\ Signature: 0xe8445ac406a3125e
Minimize
  - 841 y[0] - 1066 y[1] - 1034 y[2] - 518 y[3] - 604 y[4] - 908 y[5]
   - 497 y[6] - 908 y[7] - 662 y[8] - 245 y[9] - 711 y[10] - 481 y[11]
   - 695 y[12] - 861 y[13] - 953 y[14] - 347 y[15] - 871 y[16] - 898 y[17]
   - 176 y[18] - 1034 y[19] - 509 y[20] - 515 y[21] - 905 y[22]
   - 1043 y[23] - 734 y[24] - 599 y[25] - 1090 y[26] - 530 y[27]
   - 782 y[28] - 459 y[29] - 978 y[30] - 332 y[31] - 719 y[32] - 666 y[33]
   - 910 y[34] - 562 y[35] - 923 y[36] - 1030 y[37] - 380 y[38] - 777 y[39]
Subject To
 primal_upper: 741 y[0] + 966 y[1] + 934 y[2] + 418 y[3] + 504 y[4]
   + 808 y[5] + 397 y[6] + 808 y[7] + 562 y[8] + 145 y[9] + 611 y[10]
   + 381 y[11] + 595 y[12] + 761 y[13] + 853 y[14] + 247 y[15] + 771 y[16]
   + 798 y[17] + 76 y[18] + 934 y[19] + 409 y[20] + 415 y[21] + 805 y[22]
   + 943 y[23] + 634 y[24] + 499 y[25] + 990 y[26] + 430 y[27] + 682 y[28]
   + 359 y[29] + 878 y[30] + 232 y[31] + 619 y[32] + 566 y[33] + 810 y[34]
   + 462 y[35] + 823 y[36] + 930 y[37] + 280 y[38] + 677 y[39] + 74 z[0]
   + 97 z[1] + 93 z[2] + 42 z[3] + 50 z[4] + 81 z[5] + 40 z[6] + 81 z[7]
   + 56 z[8] + 14 z[9] + 61 z[10] + 38 z[11] + 60 z[12] + 76 z[13]
   + 85 z[14] + 25 z[15] + 77 z[16] + 80 z[17] + 8 z[18] + 93 z[19]
   + 41 z[20] + 42 z[21] + 80 z[22] + 94 z[23] + 63 z[24] + 50 z[25]
   + 99 z[26] + 43 z[27] + 68 z[28] + 36 z[29] + 88 z[30] + 23 z[31]
   + 62 z[32] + 57 z[33] + 81 z[34] + 46 z[35] + 82 z[36] + 93 z[37]
   + 28 z[38] + 68 z[39] <= 6188
 primal_lower0: - 78 y[0] - 64 y[1] - 37 y[2] - 82 y[3] - 34 y[4] - 66 y[5]
   - 47 y[6] - 46 y[7] - 93 y[8] - 82 y[9] - 117 y[10] - 28 y[11]
   - 51 y[12] - 112 y[13] - 26 y[14] - 27 y[15] - 35 y[16] - 57 y[17]
   - 42 y[18] - y[19] - 50 y[20] - 87 y[21] - 105 y[22] - 40 y[23]
   - 91 y[24] - 64 y[25] - 46 y[26] - 23 y[27] - 68 y[28] - 4 y[29]
   - 75 y[30] - 98 y[31] - 28 y[32] - 79 y[33] - 52 y[34] - 78 y[35]
   - 30 y[36] - 38 y[37] - 32 y[38] - 11 y[39] + 803 u[0] + 669 u[1]
   + 7 u[2] + 494 u[3] + 485 u[4] + 151 u[5] + 526 u[6] + 211 u[7]
   + 495 u[8] + 977 u[9] + 765 u[10] + 704 u[11] + 656 u[12] + 889 u[13]
   + 47 u[14] + 499 u[15] + 168 u[16] + 638 u[17] + 141 u[18] + 514 u[19]
   + 167 u[20] + 910 u[21] + 134 u[22] + 586 u[23] + 559 u[24] + 234 u[25]
   + 783 u[26] + 921 u[27] + 88 u[28] + 334 u[29] + 32 u[30] + 963 u[31]
   + 936 u[32] + 437 u[33] + 531 u[34] + 193 u[35] + 828 u[36] + 578 u[37]
   + 529 u[38] + 705 u[39] <= 5071
 mccormick1[0]: - u[0] + z[0] <= 0
 mccormick1[1]: - u[1] + z[1] <= 0
 mccormick1[2]: - u[2] + z[2] <= 0
 mccormick1[3]: - u[3] + z[3] <= 0
 mccormick1[4]: - u[4] + z[4] <= 0
 mccormick1[5]: - u[5] + z[5] <= 0
 mccormick1[6]: - u[6] + z[6] <= 0
 mccormick1[7]: - u[7] + z[7] <= 0
 mccormick1[8]: - u[8] + z[8] <= 0
 mccormick1[9]: - u[9] + z[9] <= 0
 mccormick1[10]: - u[10] + z[10] <= 0
 mccormick1[11]: - u[11] + z[11] <= 0
 mccormick1[12]: - u[12] + z[12] <= 0
 mccormick1[13]: - u[13] + z[13] <= 0
 mccormick1[14]: - u[14] + z[14] <= 0
 mccormick1[15]: - u[15] + z[15] <= 0
 mccormick1[16]: - u[16] + z[16] <= 0
 mccormick1[17]: - u[17] + z[17] <= 0
 mccormick1[18]: - u[18] + z[18] <= 0
 mccormick1[19]: - u[19] + z[19] <= 0
 mccormick1[20]: - u[20] + z[20] <= 0
 mccormick1[21]: - u[21] + z[21] <= 0
 mccormick1[22]: - u[22] + z[22] <= 0
 mccormick1[23]: - u[23] + z[23] <= 0
 mccormick1[24]: - u[24] + z[24] <= 0
 mccormick1[25]: - u[25] + z[25] <= 0
 mccormick1[26]: - u[26] + z[26] <= 0
 mccormick1[27]: - u[27] + z[27] <= 0
 mccormick1[28]: - u[28] + z[28] <= 0
 mccormick1[29]: - u[29] + z[29] <= 0
 mccormick1[30]: - u[30] + z[30] <= 0
 mccormick1[31]: - u[31] + z[31] <= 0
 mccormick1[32]: - u[32] + z[32] <= 0
 mccormick1[33]: - u[33] + z[33] <= 0
 mccormick1[34]: - u[34] + z[34] <= 0
 mccormick1[35]: - u[35] + z[35] <= 0
 mccormick1[36]: - u[36] + z[36] <= 0
 mccormick1[37]: - u[37] + z[37] <= 0
 mccormick1[38]: - u[38] + z[38] <= 0
 mccormick1[39]: - u[39] + z[39] <= 0
 mccormick2[0]: - y[0] + z[0] <= 0
 mccormick2[1]: - y[1] + z[1] <= 0
 mccormick2[2]: - y[2] + z[2] <= 0
 mccormick2[3]: - y[3] + z[3] <= 0
 mccormick2[4]: - y[4] + z[4] <= 0
 mccormick2[5]: - y[5] + z[5] <= 0
 mccormick2[6]: - y[6] + z[6] <= 0
 mccormick2[7]: - y[7] + z[7] <= 0
 mccormick2[8]: - y[8] + z[8] <= 0
 mccormick2[9]: - y[9] + z[9] <= 0
 mccormick2[10]: - y[10] + z[10] <= 0
 mccormick2[11]: - y[11] + z[11] <= 0
 mccormick2[12]: - y[12] + z[12] <= 0
 mccormick2[13]: - y[13] + z[13] <= 0
 mccormick2[14]: - y[14] + z[14] <= 0
 mccormick2[15]: - y[15] + z[15] <= 0
 mccormick2[16]: - y[16] + z[16] <= 0
 mccormick2[17]: - y[17] + z[17] <= 0
 mccormick2[18]: - y[18] + z[18] <= 0
 mccormick2[19]: - y[19] + z[19] <= 0
 mccormick2[20]: - y[20] + z[20] <= 0
 mccormick2[21]: - y[21] + z[21] <= 0
 mccormick2[22]: - y[22] + z[22] <= 0
 mccormick2[23]: - y[23] + z[23] <= 0
 mccormick2[24]: - y[24] + z[24] <= 0
 mccormick2[25]: - y[25] + z[25] <= 0
 mccormick2[26]: - y[26] + z[26] <= 0
 mccormick2[27]: - y[27] + z[27] <= 0
 mccormick2[28]: - y[28] + z[28] <= 0
 mccormick2[29]: - y[29] + z[29] <= 0
 mccormick2[30]: - y[30] + z[30] <= 0
 mccormick2[31]: - y[31] + z[31] <= 0
 mccormick2[32]: - y[32] + z[32] <= 0
 mccormick2[33]: - y[33] + z[33] <= 0
 mccormick2[34]: - y[34] + z[34] <= 0
 mccormick2[35]: - y[35] + z[35] <= 0
 mccormick2[36]: - y[36] + z[36] <= 0
 mccormick2[37]: - y[37] + z[37] <= 0
 mccormick2[38]: - y[38] + z[38] <= 0
 mccormick2[39]: - y[39] + z[39] <= 0
 mccormick3[0]: y[0] + u[0] - z[0] <= 1
 mccormick3[1]: y[1] + u[1] - z[1] <= 1
 mccormick3[2]: y[2] + u[2] - z[2] <= 1
 mccormick3[3]: y[3] + u[3] - z[3] <= 1
 mccormick3[4]: y[4] + u[4] - z[4] <= 1
 mccormick3[5]: y[5] + u[5] - z[5] <= 1
 mccormick3[6]: y[6] + u[6] - z[6] <= 1
 mccormick3[7]: y[7] + u[7] - z[7] <= 1
 mccormick3[8]: y[8] + u[8] - z[8] <= 1
 mccormick3[9]: y[9] + u[9] - z[9] <= 1
 mccormick3[10]: y[10] + u[10] - z[10] <= 1
 mccormick3[11]: y[11] + u[11] - z[11] <= 1
 mccormick3[12]: y[12] + u[12] - z[12] <= 1
 mccormick3[13]: y[13] + u[13] - z[13] <= 1
 mccormick3[14]: y[14] + u[14] - z[14] <= 1
 mccormick3[15]: y[15] + u[15] - z[15] <= 1
 mccormick3[16]: y[16] + u[16] - z[16] <= 1
 mccormick3[17]: y[17] + u[17] - z[17] <= 1
 mccormick3[18]: y[18] + u[18] - z[18] <= 1
 mccormick3[19]: y[19] + u[19] - z[19] <= 1
 mccormick3[20]: y[20] + u[20] - z[20] <= 1
 mccormick3[21]: y[21] + u[21] - z[21] <= 1
 mccormick3[22]: y[22] + u[22] - z[22] <= 1
 mccormick3[23]: y[23] + u[23] - z[23] <= 1
 mccormick3[24]: y[24] + u[24] - z[24] <= 1
 mccormick3[25]: y[25] + u[25] - z[25] <= 1
 mccormick3[26]: y[26] + u[26] - z[26] <= 1
 mccormick3[27]: y[27] + u[27] - z[27] <= 1
 mccormick3[28]: y[28] + u[28] - z[28] <= 1
 mccormick3[29]: y[29] + u[29] - z[29] <= 1
 mccormick3[30]: y[30] + u[30] - z[30] <= 1
 mccormick3[31]: y[31] + u[31] - z[31] <= 1
 mccormick3[32]: y[32] + u[32] - z[32] <= 1
 mccormick3[33]: y[33] + u[33] - z[33] <= 1
 mccormick3[34]: y[34] + u[34] - z[34] <= 1
 mccormick3[35]: y[35] + u[35] - z[35] <= 1
 mccormick3[36]: y[36] + u[36] - z[36] <= 1
 mccormick3[37]: y[37] + u[37] - z[37] <= 1
 mccormick3[38]: y[38] + u[38] - z[38] <= 1
 mccormick3[39]: y[39] + u[39] - z[39] <= 1
Bounds
Binaries
 y[0] y[1] y[2] y[3] y[4] y[5] y[6] y[7] y[8] y[9] y[10] y[11] y[12] y[13]
 y[14] y[15] y[16] y[17] y[18] y[19] y[20] y[21] y[22] y[23] y[24] y[25]
 y[26] y[27] y[28] y[29] y[30] y[31] y[32] y[33] y[34] y[35] y[36] y[37]
 y[38] y[39] u[0] u[1] u[2] u[3] u[4] u[5] u[6] u[7] u[8] u[9] u[10] u[11]
 u[12] u[13] u[14] u[15] u[16] u[17] u[18] u[19] u[20] u[21] u[22] u[23]
 u[24] u[25] u[26] u[27] u[28] u[29] u[30] u[31] u[32] u[33] u[34] u[35]
 u[36] u[37] u[38] u[39] z[0] z[1] z[2] z[3] z[4] z[5] z[6] z[7] z[8] z[9]
 z[10] z[11] z[12] z[13] z[14] z[15] z[16] z[17] z[18] z[19] z[20] z[21]
 z[22] z[23] z[24] z[25] z[26] z[27] z[28] z[29] z[30] z[31] z[32] z[33]
 z[34] z[35] z[36] z[37] z[38] z[39]
End
